2
150 3
76
20 1 2
21 1 4
22 1 3
23 1 3
24 1 5
25 1 3
26 1 2
27 1 4
28 1 5
29 1 2
30 1 3
31 1 7
32 1 2
33 1 6
34 1 4
35 1 4
36 1 1
37 1 3
38 1 1
39 1 3
40 1 3
41 1 1
42 1 2
44 1 2
45 1 2
46 1 5
47 1 2
48 1 6
49 1 6
50 1 4
52 1 2
53 1 1
54 1 2
55 1 6
56 1 3
57 1 3
58 1 7
59 1 6
60 1 3
61 1 3
62 1 3
63 1 1
64 1 1
65 1 2
66 1 4
67 1 4
68 1 2
70 1 4
71 1 2
72 1 3
73 1 4
74 1 3
75 1 4
77 1 7
78 1 3
79 1 3
80 1 3
81 1 3
82 1 2
83 1 2
84 1 4
85 1 2
87 1 3
88 1 2
89 1 2
90 1 7
91 1 1
92 1 1
93 1 2
94 1 5
95 1 5
96 1 4
97 1 5
98 1 2
99 1 6
100 1 3
